decision_x1=[0,2];
decision_x2=[0,2];
decision_x3=[0,2];
decision_x4=[0,2];
decision_x5=[0,2];
random_y1=[0,2];
constraint_x2_x1=[
0,0,9.6|
0,1,5.9|
0,2,6.7|
1,0,5.6|
1,1,0.07|
1,2,2.5|
2,0,0.37|
2,1,8|
2,2,6.6|
];
constraint_x3_x1=[
0,0,3.4|
0,1,9.4|
0,2,3.3|
1,0,2|
1,1,5.4|
1,2,1.9|
2,0,0.82|
2,1,1.2|
2,2,0.36|
];
constraint_x4_x1=[
0,0,2.1|
0,1,6.5|
0,2,7.6|
1,0,5.9|
1,1,10|
1,2,5.7|
2,0,3|
2,1,5.8|
2,2,1.2|
];
constraint_x4_x2=[
0,0,2.4|
0,1,1.6|
0,2,7|
1,0,2.7|
1,1,8.9|
1,2,5.5|
2,0,5.9|
2,1,5.6|
2,2,7.9|
];
constraint_x5_x1=[
0,0,7.1|
0,1,3.2|
0,2,4|
1,0,6.5|
1,1,8.7|
1,2,2.8|
2,0,6.4|
2,1,4.1|
2,2,6.2|
];
constraint_x1_y1=[
0,0,7.5|
0,1,5.6|
0,2,0.25|
1,0,0.76|
1,1,5.2|
1,2,7.4|
2,0,0.84|
2,1,3.6|
2,2,3.6|
];
initial_distribution_y1=[0.19,0.089,0.72];
transition_y1=[
0.49,0.16,0.34|
0.14,0.66,0.21|
0.24,0.43,0.33|
];
